c File: data_files/evolved_graphs/g7352.col
c
c Auto generated graph
c
p edge 100 193
e 1 38
e 1 41
e 1 67
e 1 99
e 2 25
e 2 33
e 2 37
e 2 66
e 3 36
e 3 45
e 3 57
e 3 73
e 4 5
e 4 32
e 4 53
e 4 56
e 5 37
e 5 58
e 5 59
e 6 63
e 6 85
e 6 91
e 7 27
e 7 52
e 7 93
e 8 46
e 8 69
e 8 99
e 9 15
e 9 37
e 9 53
e 9 92
e 10 40
e 10 89
e 10 90
e 10 92
e 10 93
e 11 35
e 11 43
e 11 84
e 11 92
e 12 44
e 12 77
e 12 83
e 12 98
e 13 31
e 13 77
e 13 88
e 13 91
e 13 97
e 13 100
e 14 43
e 14 79
e 14 90
e 15 69
e 15 87
e 16 17
e 16 49
e 16 54
e 16 86
e 17 29
e 17 55
e 17 76
e 17 88
e 18 50
e 18 61
e 18 65
e 18 67
e 19 58
e 19 64
e 19 89
e 19 95
e 20 30
e 20 72
e 20 89
e 20 100
e 21 24
e 21 40
e 21 67
e 21 94
e 22 55
e 22 61
e 22 64
e 22 99
e 22 100
e 23 25
e 23 51
e 23 53
e 24 25
e 24 34
e 24 46
e 24 65
e 26 54
e 26 82
e 27 28
e 27 64
e 28 63
e 28 89
e 29 50
e 29 56
e 29 58
e 29 76
e 30 32
e 30 73
e 30 75
e 31 33
e 31 46
e 31 67
e 32 34
e 32 73
e 33 74
e 33 85
e 34 50
e 34 84
e 35 46
e 35 61
e 35 66
e 36 53
e 36 72
e 36 88
e 37 57
e 38 59
e 38 94
e 38 95
e 39 51
e 39 62
e 39 64
e 39 94
e 40 81
e 40 90
e 41 66
e 41 68
e 41 87
e 42 55
e 42 68
e 42 70
e 42 77
e 43 48
e 43 68
e 44 80
e 44 97
e 45 60
e 45 85
e 45 92
e 48 51
e 48 60
e 48 65
e 49 58
e 49 80
e 49 100
e 50 54
e 51 61
e 52 54
e 52 87
e 55 82
e 56 94
e 56 98
e 57 84
e 57 98
e 59 65
e 59 72
e 59 74
e 60 95
e 61 87
e 62 67
e 62 70
e 62 78
e 63 69
e 63 75
e 63 86
e 66 70
e 69 100
e 70 79
e 70 81
e 71 76
e 71 80
e 71 86
e 72 82
e 73 74
e 74 96
e 75 88
e 75 90
e 77 83
e 78 83
e 78 95
e 79 84
e 79 96
e 81 82
e 81 88
e 81 98
e 86 97
e 91 96
e 92 93
